\ENCODING=ISO-8859-1
\Problem name: instances

Maximize
 obj:
Subject To
 c1: 31 x1 + 2 x2 + 66 x3 + 59 x4 + 2 x5 + 64 x6 + 71 x8 + 64 x9 + 45 x10
     <= 394
 c2: 81 x1 + 36 x2 + 26 x3 + 79 x4 + 55 x5 + 72 x6 + 35 x7 + 41 x8 + 73 x9
     + 31 x10 <= 419
 c3: 94 x1 + 7 x2 + 32 x3 + 45 x4 + 68 x5 + 57 x6 + 21 x7 + 87 x8 + 19 x10
     <= 341
 c4: 90 x1 + 100 x2 + 99 x3 + 35 x4 + 30 x5 - 52 x6 + 99 x7 + 88 x8 + 26 x9
     + 7 x10 <= 492
 c5: 54 x2 + 51 x3 + 54 x4 + 27 x6 + 48 x7 + 83 x8 - 17 x9 + 44 x10 <= 295
Bounds
      x1 >= 0
      x2 >= 0
      x3 >= 0
      x4 >= 0
      x5 >= 0
      x6 >= 0
      x7 >= 0
      x8 >= 0
      x9 >= 0
      x10 >= 0
Generals
 x1  x2  x3  x4  x5  x6  x7  x8  x9  x10 
End
